WARNING: for repeatability, setting FPU to use double precision
============================[ Problem Statistics ]=============================
|                                                                             |
|  Number of variables:            50                                         |
|  Number of clauses:             218                                         |
|  Parse time:                   0.00 s                                       |
|                                                                             |
============================[ Search Statistics ]==============================
| Conflicts |          ORIGINAL         |          LEARNT          | Progress |
|           |    Vars  Clauses Literals |    Limit  Clauses Lit/Cl |          |
===============================================================================
===============================================================================
restarts              : 1
conflicts             : 45             (155709 /sec)
decisions             : 55             (0.00 % random) (190311 /sec)
propagations          : 717            (2480969 /sec)
conflict literals     : 147            (17.42 % deleted)
Memory used           : 20.00 MB
CPU time              : 0.000289 s

UNSATISFIABLE
